TCS_Benchmarks/redos_fix/corpus2_output_distinct_3832_3831_8_0.txt
(.*)( +)
(.*)([^\n0-9a-z](sudo|su +-c|system\/bin\/su))( +)